Fe2Se2Li2 Final Version (2019.11.26)    
   1.00000000000000     
     3.7117397785000001    0.0000000000000000    0.0000000000000000
     0.0000000000000000    3.7117397785000001    0.0000000000000000
     0.0000000000000000    0.0000000000000000   20.0000000000000000
   Fe   Se   Li
     2     2     2
Direct
  0.0000000000000000  0.0000000000000000  0.5000000000000000
  0.5000000000000000  0.5000000000000000  0.5000000000000000
  0.0000000000000000  0.5000000000000000  0.4090339179999987
  0.5000000000000000  0.0000000000000000  0.5909660339999974
  0.0000000000000000  0.5000000000000000  0.6095543380000024
  0.5000000000000000  0.0000000000000000  0.3904456619999976
 
  0.00000000E+00  0.00000000E+00  0.00000000E+00
  0.00000000E+00  0.00000000E+00  0.00000000E+00
  0.00000000E+00  0.00000000E+00  0.00000000E+00
  0.00000000E+00  0.00000000E+00  0.00000000E+00
  0.00000000E+00  0.00000000E+00  0.00000000E+00
  0.00000000E+00  0.00000000E+00  0.00000000E+00
