K-Path Generated by VASPKIT.
   20
Line-Mode
Reciprocal
   0.0000000000   0.0000000000   0.0000000000     GAMMA          
   0.5000000000   0.5000000000   0.5000000000     T              
 
   0.5000000000   0.5000000000   0.5000000000     T              
   0.7524854368   0.2475145632   0.5000000000     H_2            
 
   0.5000000000  -0.2475145632   0.2475145632     H_0            
   0.5000000000   0.0000000000   0.0000000000     L              
 
   0.5000000000   0.0000000000   0.0000000000     L              
   0.0000000000   0.0000000000   0.0000000000     GAMMA          
 
   0.0000000000   0.0000000000   0.0000000000     GAMMA          
   0.3737572816  -0.3737572816   0.0000000000     S_0            
 
   0.6262427184   0.0000000000   0.3737572816     S_2            
   0.5000000000   0.0000000000   0.5000000000     F              
 
   0.5000000000   0.0000000000   0.5000000000     F              
   0.0000000000   0.0000000000   0.0000000000     GAMMA          
 
