Bi7Fe20O40 Annealing [R3]              
   1.00000000000000     
    10.6851054874529670   -0.0149169247520067   -0.0104952872115720
     5.4370172819682798    9.1983990382744274   -0.0104952984415341
     5.4370172751720247    3.0970332990679594    8.6613532336317061
   Bi   Fe   O 
     7    20    40
Direct
  0.9979056132443915  0.9979058282443916  0.9979057932443922
  0.6442066663045836  0.0435962630503681  0.9865140437896258
  0.9865140347896215  0.6442066573045864  0.0435962620503716
  0.0435962680503650  0.9865140657896205  0.6442066043045855
  0.3560899176205652  0.9713751345024946  0.9777802777620153
  0.9777803837620169  0.3560899516205680  0.9713751855024952
  0.9713751555024928  0.9777802207620141  0.3560899246205693
  0.3482066669266217  0.3615614942996217  0.0145463480630426
  0.6515560144695769  0.3528183727618099  0.9955953142001093
  0.3396947666278436  0.6537793843197619  0.9936968450741333
  0.6574026166819067  0.6545810182792735  0.0022844675949187
  0.3615614842996280  0.0145463540630431  0.3482066679266254
  0.6537793933197591  0.9936968530741339  0.3396947536278390
  0.0145463420630492  0.3482066979266207  0.3615614842996280
  0.3386056943440039  0.3386056853440067  0.3386056813440064
  0.6456887999579806  0.3385915489131577  0.3368362834313672
  0.9955954032001060  0.6515560084695764  0.3528183187618055
  0.3368363524313693  0.6456888079579812  0.3385914919131565
  0.6435116461469192  0.6541493769629056  0.3489501188920130
  0.3528183637618056  0.9955953472001084  0.6515559314695736
  0.6545809802792775  0.0022844975949212  0.6574025336819034
  0.9936969430741343  0.3396948136278439  0.6537792873197574
  0.3385915509131578  0.3368363144313662  0.6456887969579839
  0.6541493569629040  0.3489501368920145  0.6435116311469216
  0.0022845235949163  0.6574025726819031  0.6545809852792743
  0.3489501248920135  0.6435116801469221  0.6541493229629012
  0.6623460789315061  0.6623461329315035  0.6623460759315094
  0.3024891703577453  0.8813605148229513  0.5879317560975679
  0.5879318030975682  0.3024891463577504  0.8813604398229558
  0.8813605408229535  0.5879318160975657  0.3024891193577517
  0.3014285809676949  0.5889337923660349  0.8805035468091944
  0.5889338153660404  0.8805035908091909  0.3014285449676990
  0.8805036718091941  0.3014285579676965  0.5889336883660405
  0.7100461645738179  0.1198999194186356  0.4101111373397544
  0.4101111173397598  0.7100461095738169  0.1198998884186366
  0.1198999114186350  0.4101111383397580  0.7100461185738212
  0.7067926310820880  0.4068072631885755  0.1192252819112554
  0.4068072991885785  0.1192253179112512  0.7067926640820943
  0.1192253039112501  0.7067926670820910  0.4068072531885747
  0.9120861301195902  0.9120862341195917  0.9120861771195905
  0.5899333144080856  0.5899333684080830  0.5899333084080851
  0.0847691527450891  0.0847691477450923  0.0847691497450924
  0.4159867211671795  0.4159867451671815  0.4159867411671812
  0.6057937488173621  0.8703982648878394  0.8735093189414513
  0.8735093039414537  0.6057936988173580  0.8703981718878424
  0.8703981158878449  0.8735093859414533  0.6057937118173626
  0.2997327414976567  0.8767364160630251  0.8782514387024563
  0.8782515187024629  0.2997326874976594  0.8767364330630230
  0.8767365150630297  0.8782514507024572  0.2997326724976546
  0.1391763023539099  0.7056721367071290  0.6735893784438574
  0.6735893734438534  0.1391763073539067  0.7056720767071312
  0.7056720827071317  0.6735893794438539  0.1391762863539086
  0.3912478515657014  0.1323874180427893  0.1239284383097825
  0.1239284523097766  0.3912478495657012  0.1323874020427951
  0.1323874240427898  0.1239284683097779  0.3912478035657045
  0.7034115979138349  0.1230772081685387  0.1170888490054836
  0.1170888870054796  0.7034115429138339  0.1230771991685415
  0.1230772141685392  0.1170888710054783  0.7034115669138359
  0.7003307610071801  0.4108192824539643  0.4170631273227414
  0.4170632093227411  0.7003307700071773  0.4108192544539691
  0.4108192424539681  0.4170631723227416  0.7003307360071815
  0.5845741027374558  0.8826456801792730  0.5899618334317651
  0.5899619114317645  0.5845740747374535  0.8826455821792720
  0.8826456691792686  0.5899618684317645  0.5845740767374537
  0.4174819491671116  0.1163748584508753  0.4122484953010215
  0.4122485133010230  0.4174819461671149  0.1163748464508743
  0.1163748774508733  0.4122485303010208  0.4174819291671099
