KPT-Resolved Value to Generate K-Mesh: 0.010
0
Monkhorst-Pack
 17   17   17
0.0  0.0  0.0
