K-Path Generated by VASPKIT.
   60
Line-Mode
Reciprocal
   0.0000000000   0.0000000000   0.0000000000     Gamma          
   0.5000000000   0.5000000000   0.5000000000     T              
 
   0.5000000000   0.5000000000   0.5000000000     T              
   0.7521520991   0.2478479009   0.5000000000     H_2            
 
   0.5000000000  -0.2478479009   0.2478479009     H_0            
   0.5000000000   0.0000000000   0.0000000000     L              
 
   0.5000000000   0.0000000000   0.0000000000     L              
   0.0000000000   0.0000000000   0.0000000000     Gamma          
 
   0.0000000000   0.0000000000   0.0000000000     Gamma          
   0.3739239505  -0.3739239505   0.0000000000     S_0            
 
   0.6260760495   0.0000000000   0.3739239505     S_2            
   0.5000000000   0.0000000000   0.5000000000     F              
 
   0.5000000000   0.0000000000   0.5000000000     F              
   0.0000000000   0.0000000000   0.0000000000     Gamma          
 
