Primitive Cell
  1.000000
    2.79380011559762    1.61300124880229    4.62233320873333
   -2.79380011559762    1.61300124880229    4.62233320873333
    0.00000000000000   -3.22600249760458    4.62233320873333
  Bi  Fe  O 
   2   2   6
DIRECT
    0.9999999726666667    0.9999999726666667    0.9999999726666667    Bi1
    0.4999999956666651    0.4999999956666650    0.4999999956666651    Bi2
    0.7787999763333318    0.7787999763333318    0.7787999763333318    Fe1
    0.2787999763333317    0.2787999763333317    0.2787999763333318    Fe2
    0.0577000296666647    0.4766999909999991    0.6027000233333292     O1
    0.4766999909999989    0.6027000233333292    0.0577000296666647     O2
    0.6027000233333292    0.0577000296666647    0.4766999909999991     O3
    0.1027000353333348    0.9766999909999964    0.5577000616666653     O4
    0.5577000616666652    0.1027000353333348    0.9766999909999966     O5
    0.9766999909999964    0.5577000616666652    0.1027000353333348     O6
